data/Knapsack/example
5 10
1 2
3 4
4 5
4 4
4 2