data/SOP/example.sop
NAME: ESC03.sop
TYPE: SOP
COMMENT: Received by Norbert Ascheuer / Laureano Escudero
DIMENSION: 5
EDGE_WEIGHT_TYPE: EXPLICIT
EDGE_WEIGHT_FORMAT: FULL_MATRIX 
EDGE_WEIGHT_SECTION
5
    0    0    0    0  1000000
   -1    0  100  200   0
   -1  400    0  500   0
   -1   -1    0    0   0
   -1   -1   -1   -1   0
EOF

